821432311694628340502,3,1,2,010,8,1,2,06,15,1,2,04,15,1,2,010,4,1,2,02,9,1,2,011,8,1,2,014,1,1,2,08,12,1,2,04,10,1,2,06,14,1,2,07,1,1,2,011,15,1,2,010,3,1,2,06,9,1,2,05,3,1,2,02,10,1,2,012,15,1,2,07,15,1,2,09,6,1,2,014,1,1,2,09,8,1,2,010,10,1,2,03,11,1,2,013,6,1,2,03,12,1,2,010,6,1,2,07,8,1,2,015,1,1,2,012,12,1,2,09,8,1,2,012,4,1,2,011,4,1,2,09,6,1,2,03,5,1,2,013,9,1,2,08,15,1,2,02,14,1,2,04,1,1,2,06,7,1,2,05,2,1,2,09,2,1,2,010,13,1,2,05,4,1,2,03,13,1,2,02,6,1,2,014,12,1,2,015,3,1,2,02,8,1,2,012,7,1,2,0